Mo2
1.0
   3.1692999999999998    0.0000000000000000    0.0000000000000002
   0.0000000000000005    3.1692999999999998    0.0000000000000002
   0.0000000000000000    0.0000000000000000    3.1692999999999998
Mo
2
direct
   0.0000000000000000    0.0000000000000000    0.0000000000000000 Mo
   0.5000000000000000    0.5000000000000000    0.5000000000000000 Mo
