Mn4
1.0
   3.5955200000000000    0.0000000000000000    0.0000000000000002
   0.0000000000000006    3.5955200000000000    0.0000000000000002
   0.0000000000000000    0.0000000000000000    3.5955200000000000
Mn
4
direct
   0.0000000000000000    0.0000000000000000    0.0000000000000000 Mn
   0.0000000000000000    0.5000000000000000    0.5000000000000000 Mn
   0.5000000000000000    0.0000000000000000    0.5000000000000000 Mn
   0.5000000000000000    0.5000000000000000    0.0000000000000000 Mn
