S1                                      
   1.00000000000000     
     2.5806971835925299    0.0000000000000000   -0.0655681896774996
    -0.0672552507513198    2.5798206690870575   -0.0655681896774996
     0.0000000000000000    0.0000000000000000    2.5815299999999999
   S 
     1
Direct
  0.0000000000000000  0.0000000000000000  0.0000000000000000
 
  0.00000000E+00  0.00000000E+00  0.00000000E+00
