Sc2                                     
   1.00000000000000     
     3.3214500000000000    0.0000000000000000    0.0000000000000002
     1.6607250000000007    2.8764600773998232    0.0000000000000002
     0.0000000000000000    0.0000000000000000    5.1619200000000003
   Sc
     2
Direct
  0.0000000000000000  0.0000000000000000  0.0000000000000000
  0.3333333333333357  0.3333333333333357  0.5000000000000000
 
  0.00000000E+00  0.00000000E+00  0.00000000E+00
  0.00000000E+00  0.00000000E+00  0.00000000E+00
