Sc2
1.0
   3.3214500000000000    0.0000000000000000    0.0000000000000002
   1.6607250000000007    2.8764600773998232    0.0000000000000002
   0.0000000000000000    0.0000000000000000    5.1619200000000003
Sc
2
direct
   0.0000000000000000    0.0000000000000000    0.0000000000000000 Sc
   0.3333333333333333    0.3333333333333333    0.5000000000000000 Sc
