C4                                      
   1.00000000000000     
     2.4685700000000002    0.0000000000000000    0.0000000000000002
    -1.2342849999999994    2.1378443310201525    0.0000000000000002
     0.0000000000000000    0.0000000000000000    8.8407900000000001
   C 
     4
Direct
  0.0000000000000000  0.0000000000000000  0.2500000000000000
  0.0000000000000000  0.0000000000000000  0.7500000000000000
  0.3333333333333357  0.6666666666666643  0.2500000000000000
  0.6666666666666643  0.3333333333333357  0.7500000000000000
 
  0.00000000E+00  0.00000000E+00  0.00000000E+00
  0.00000000E+00  0.00000000E+00  0.00000000E+00
  0.00000000E+00  0.00000000E+00  0.00000000E+00
  0.00000000E+00  0.00000000E+00  0.00000000E+00
