K2
1.0
   5.2858900000000002    0.0000000000000000    0.0000000000000003
   0.0000000000000009    5.2858900000000002    0.0000000000000003
   0.0000000000000000    0.0000000000000000    5.2858900000000002
K
2
direct
   0.0000000000000000    0.0000000000000000    0.0000000000000000 K
   0.5000000000000000    0.5000000000000000    0.5000000000000000 K
