V2
1.0
   2.9989400000000002    0.0000000000000000    0.0000000000000002
   0.0000000000000005    2.9989400000000002    0.0000000000000002
   0.0000000000000000    0.0000000000000000    2.9989400000000002
V
2
direct
   0.0000000000000000    0.0000000000000000    0.0000000000000000 V
   0.5000000000000000    0.5000000000000000    0.5000000000000000 V
