Kr4
1.0
   6.4292999999999996    0.0000000000000000    0.0000000000000004
   0.0000000000000010    6.4292999999999996    0.0000000000000004
   0.0000000000000000    0.0000000000000000    6.4292999999999996
Kr
4
direct
   0.0000000000000000    0.0000000000000000    0.0000000000000000 Kr
   0.0000000000000000    0.5000000000000000    0.5000000000000000 Kr
   0.5000000000000000    0.0000000000000000    0.5000000000000000 Kr
   0.5000000000000000    0.5000000000000000    0.0000000000000000 Kr
