Ca4
1.0
   5.5250700000000004    0.0000000000000000    0.0000000000000003
   0.0000000000000009    5.5250700000000004    0.0000000000000003
   0.0000000000000000    0.0000000000000000    5.5250700000000004
Ca
4
direct
   0.0000000000000000    0.0000000000000000    0.0000000000000000 Ca
   0.0000000000000000    0.5000000000000000    0.5000000000000000 Ca
   0.5000000000000000    0.0000000000000000    0.5000000000000000 Ca
   0.5000000000000000    0.5000000000000000    0.0000000000000000 Ca
