Be2                                     
   1.00000000000000     
     2.2627600000000001    0.0000000000000000    0.0000000000000001
     1.1313800000000005    1.9596076426672762    0.0000000000000001
     0.0000000000000000    0.0000000000000000    3.5731600000000001
   Be
     2
Direct
  0.0000000000000000  0.0000000000000000  0.0000000000000000
  0.3333333333333357  0.3333333333333357  0.5000000000000000
 
  0.00000000E+00  0.00000000E+00  0.00000000E+00
  0.00000000E+00  0.00000000E+00  0.00000000E+00
