Hf2
1.0
   3.2027299999999999    0.0000000000000000    0.0000000000000002
   1.6013650000000006    2.7736455414625345    0.0000000000000002
   0.0000000000000000    0.0000000000000000    5.0649300000000004
Hf
2
direct
   0.0000000000000000    0.0000000000000000    0.0000000000000000 Hf
   0.3333333333333333    0.3333333333333333    0.5000000000000000 Hf
