Rb2                                     
   1.00000000000000     
     5.6719700000000000    0.0000000000000000    0.0000000000000003
     0.0000000000000009    5.6719700000000000    0.0000000000000003
     0.0000000000000000    0.0000000000000000    5.6719700000000000
   Rb
     2
Direct
  0.0000000000000000  0.0000000000000000  0.0000000000000000
  0.5000000000000000  0.5000000000000000  0.5000000000000000
 
  0.00000000E+00  0.00000000E+00  0.00000000E+00
  0.00000000E+00  0.00000000E+00  0.00000000E+00
