P8                                      
   1.00000000000000     
     3.3046600000000002    0.0000000000000000    0.0000000000000002
     0.0000000000000018   11.3169400000000007    0.0000000000000007
     0.0000000000000000    0.0000000000000000    4.5732699999999999
   P 
     8
Direct
  0.0000000000000000  0.0935699999999997  0.0871899999999997
  0.0000000000000000  0.9064300000000003  0.9128100000000003
  0.0000000000000000  0.4064300000000003  0.5871899999999997
  0.0000000000000000  0.5935699999999997  0.4128100000000003
  0.5000000000000000  0.5935699999999997  0.0871899999999997
  0.5000000000000000  0.4064300000000003  0.9128100000000003
  0.5000000000000000  0.9064300000000003  0.5871899999999997
  0.5000000000000000  0.0935699999999997  0.4128100000000003
 
  0.00000000E+00  0.00000000E+00  0.00000000E+00
  0.00000000E+00  0.00000000E+00  0.00000000E+00
  0.00000000E+00  0.00000000E+00  0.00000000E+00
  0.00000000E+00  0.00000000E+00  0.00000000E+00
  0.00000000E+00  0.00000000E+00  0.00000000E+00
  0.00000000E+00  0.00000000E+00  0.00000000E+00
  0.00000000E+00  0.00000000E+00  0.00000000E+00
  0.00000000E+00  0.00000000E+00  0.00000000E+00
