Ar4
1.0
   5.9505900000000000    0.0000000000000000    0.0000000000000004
   0.0000000000000010    5.9505900000000000    0.0000000000000004
   0.0000000000000000    0.0000000000000000    5.9505900000000000
Ar
4
direct
   0.0000000000000000    0.0000000000000000    0.0000000000000000 Ar
   0.0000000000000000    0.5000000000000000    0.5000000000000000 Ar
   0.5000000000000000    0.0000000000000000    0.5000000000000000 Ar
   0.5000000000000000    0.5000000000000000    0.0000000000000000 Ar
