Ge2
1.0
   3.5283520398445218    0.0000000000000000    2.0370950000000003
   1.1761173466148407    3.3265622050499317    2.0370950000000003
   0.0000000000000000    0.0000000000000000    4.0741899999999998
Ge
2
direct
   0.0000000000000000    0.0000000000000000    0.0000000000000000 Ge
   0.2500000000000000    0.2500000000000000    0.2500000000000000 Ge
