P8
1.0
   3.3046600000000002    0.0000000000000000    0.0000000000000002
   0.0000000000000018   11.3169400000000007    0.0000000000000007
   0.0000000000000000    0.0000000000000000    4.5732699999999999
P
8
direct
   0.0000000000000000    0.0935700000000000    0.0871900000000000 P
   0.0000000000000000    0.9064300000000000    0.9128100000000000 P
   0.0000000000000000    0.4064300000000000    0.5871900000000000 P
   0.0000000000000000    0.5935700000000000    0.4128100000000000 P
   0.5000000000000000    0.5935700000000000    0.0871900000000000 P
   0.5000000000000000    0.4064300000000000    0.9128100000000000 P
   0.5000000000000000    0.9064300000000000    0.5871900000000000 P
   0.5000000000000000    0.0935700000000000    0.4128100000000000 P
