Mg2
1.0
   3.1940499999999998    0.0000000000000000    0.0000000000000002
   1.5970250000000006    2.7661284409576856    0.0000000000000002
   0.0000000000000000    0.0000000000000000    5.1719799999999996
Mg
2
direct
   0.0000000000000000    0.0000000000000000    0.0000000000000000 Mg
   0.3333333333333333    0.3333333333333333    0.5000000000000000 Mg
