I8                                      
   1.00000000000000     
     8.5770099999999996    0.0000000000000000    0.0000000000000005
     0.0000000000000007    4.5542199999999999    0.0000000000000003
     0.0000000000000000    0.0000000000000000   10.1838099999999994
   I 
     8
Direct
  0.0000000000000000  0.3641000000000005  0.8785700000000034
  0.0000000000000000  0.1358999999999995  0.3785700000000034
  0.0000000000000000  0.8641000000000005  0.6214299999999966
  0.0000000000000000  0.6358999999999995  0.1214299999999966
  0.5000000000000000  0.8641000000000005  0.8785700000000034
  0.5000000000000000  0.6358999999999995  0.3785700000000034
  0.5000000000000000  0.3641000000000005  0.6214299999999966
  0.5000000000000000  0.1358999999999995  0.1214299999999966
 
  0.00000000E+00  0.00000000E+00  0.00000000E+00
  0.00000000E+00  0.00000000E+00  0.00000000E+00
  0.00000000E+00  0.00000000E+00  0.00000000E+00
  0.00000000E+00  0.00000000E+00  0.00000000E+00
  0.00000000E+00  0.00000000E+00  0.00000000E+00
  0.00000000E+00  0.00000000E+00  0.00000000E+00
  0.00000000E+00  0.00000000E+00  0.00000000E+00
  0.00000000E+00  0.00000000E+00  0.00000000E+00
