Be2
1.0
   2.2627600000000001    0.0000000000000000    0.0000000000000001
   1.1313800000000005    1.9596076426672762    0.0000000000000001
   0.0000000000000000    0.0000000000000000    3.5731600000000001
Be
2
direct
   0.0000000000000000    0.0000000000000000    0.0000000000000000 Be
   0.3333333333333333    0.3333333333333333    0.5000000000000000 Be
