Mg2                                     
   1.00000000000000     
     3.1940499999999998    0.0000000000000000    0.0000000000000002
     1.5970250000000006    2.7661284409576856    0.0000000000000002
     0.0000000000000000    0.0000000000000000    5.1719799999999996
   Mg
     2
Direct
  0.0000000000000000  0.0000000000000000  0.0000000000000000
  0.3333333333333357  0.3333333333333357  0.5000000000000000
 
  0.00000000E+00  0.00000000E+00  0.00000000E+00
  0.00000000E+00  0.00000000E+00  0.00000000E+00
