Li3
1.0
   3.0121842099161107    0.0000000000000000    7.0211792091593885
   1.4425188551582813    2.6443133450823839    7.0211792091593885
   0.0000000000000000    0.0000000000000000    7.6400399999999999
Li
3
direct
   0.0000000000000000    0.0000000000000000    0.0000000000000000 Li
   0.2222200000000000    0.2222200000000000    0.2222200000000000 Li
   0.7777800000000000    0.7777800000000000    0.7777800000000000 Li
