Br8                                     
   1.00000000000000     
     8.2286000000000001    0.0000000000000000    0.0000000000000005
     0.0000000000000007    4.2273100000000001    0.0000000000000003
     0.0000000000000000    0.0000000000000000    9.0332299999999996
   Br
     8
Direct
  0.0000000000000000  0.3757400000000004  0.8828400000000016
  0.0000000000000000  0.1242599999999996  0.3828400000000016
  0.0000000000000000  0.8757400000000004  0.6171599999999984
  0.0000000000000000  0.6242599999999996  0.1171599999999984
  0.5000000000000000  0.8757400000000004  0.8828400000000016
  0.5000000000000000  0.6242599999999996  0.3828400000000016
  0.5000000000000000  0.3757400000000004  0.6171599999999984
  0.5000000000000000  0.1242599999999996  0.1171599999999984
 
  0.00000000E+00  0.00000000E+00  0.00000000E+00
  0.00000000E+00  0.00000000E+00  0.00000000E+00
  0.00000000E+00  0.00000000E+00  0.00000000E+00
  0.00000000E+00  0.00000000E+00  0.00000000E+00
  0.00000000E+00  0.00000000E+00  0.00000000E+00
  0.00000000E+00  0.00000000E+00  0.00000000E+00
  0.00000000E+00  0.00000000E+00  0.00000000E+00
  0.00000000E+00  0.00000000E+00  0.00000000E+00
