N8                                      
   1.00000000000000     
     6.1901900000000003    0.0000000000000000    0.0000000000000004
     0.0000000000000010    6.1901900000000003    0.0000000000000004
     0.0000000000000000    0.0000000000000000    6.1901900000000003
   N 
     8
Direct
  0.0518900000000002  0.0518900000000002  0.0518900000000002
  0.9481099999999998  0.9481099999999998  0.9481099999999998
  0.4481099999999998  0.9481099999999998  0.5518900000000002
  0.5518900000000002  0.0518900000000002  0.4481099999999998
  0.9481099999999998  0.5518900000000002  0.4481099999999998
  0.0518900000000002  0.4481099999999998  0.5518900000000002
  0.5518900000000002  0.4481099999999998  0.9481099999999998
  0.4481099999999998  0.5518900000000002  0.0518900000000002
 
  0.00000000E+00  0.00000000E+00  0.00000000E+00
  0.00000000E+00  0.00000000E+00  0.00000000E+00
  0.00000000E+00  0.00000000E+00  0.00000000E+00
  0.00000000E+00  0.00000000E+00  0.00000000E+00
  0.00000000E+00  0.00000000E+00  0.00000000E+00
  0.00000000E+00  0.00000000E+00  0.00000000E+00
  0.00000000E+00  0.00000000E+00  0.00000000E+00
  0.00000000E+00  0.00000000E+00  0.00000000E+00
