N8
1.0
   6.1901900000000003    0.0000000000000000    0.0000000000000004
   0.0000000000000010    6.1901900000000003    0.0000000000000004
   0.0000000000000000    0.0000000000000000    6.1901900000000003
N
8
direct
   0.0518900000000000    0.0518900000000000    0.0518900000000000 N
   0.9481100000000000    0.9481100000000000    0.9481100000000000 N
   0.4481100000000000    0.9481100000000000    0.5518900000000000 N
   0.5518900000000000    0.0518900000000000    0.4481100000000000 N
   0.9481100000000000    0.5518900000000000    0.4481100000000000 N
   0.0518900000000000    0.4481100000000000    0.5518900000000000 N
   0.5518900000000000    0.4481100000000000    0.9481100000000000 N
   0.4481100000000000    0.5518900000000000    0.0518900000000000 N
