K2                                      
   1.00000000000000     
     5.2858900000000002    0.0000000000000000    0.0000000000000003
     0.0000000000000009    5.2858900000000002    0.0000000000000003
     0.0000000000000000    0.0000000000000000    5.2858900000000002
   K 
     2
Direct
  0.0000000000000000  0.0000000000000000  0.0000000000000000
  0.5000000000000000  0.5000000000000000  0.5000000000000000
 
  0.00000000E+00  0.00000000E+00  0.00000000E+00
  0.00000000E+00  0.00000000E+00  0.00000000E+00
