Ta2                                     
   1.00000000000000     
     3.3216899999999998    0.0000000000000000    0.0000000000000002
     0.0000000000000005    3.3216899999999998    0.0000000000000002
     0.0000000000000000    0.0000000000000000    3.3216899999999998
   Ta
     2
Direct
  0.0000000000000000  0.0000000000000000  0.0000000000000000
  0.5000000000000000  0.5000000000000000  0.5000000000000000
 
  0.00000000E+00  0.00000000E+00  0.00000000E+00
  0.00000000E+00  0.00000000E+00  0.00000000E+00
