Ta2
1.0
   3.3216899999999998    0.0000000000000000    0.0000000000000002
   0.0000000000000005    3.3216899999999998    0.0000000000000002
   0.0000000000000000    0.0000000000000000    3.3216899999999998
Ta
2
direct
   0.0000000000000000    0.0000000000000000    0.0000000000000000 Ta
   0.5000000000000000    0.5000000000000000    0.5000000000000000 Ta
