Zr2                                     
   1.00000000000000     
     3.2360300000000000    0.0000000000000000    0.0000000000000002
     1.6180150000000006    2.8024841874085564    0.0000000000000002
     0.0000000000000000    0.0000000000000000    5.1895300000000004
   Zr
     2
Direct
  0.0000000000000000  0.0000000000000000  0.0000000000000000
  0.3333333333333357  0.3333333333333357  0.5000000000000000
 
  0.00000000E+00  0.00000000E+00  0.00000000E+00
  0.00000000E+00  0.00000000E+00  0.00000000E+00
