Zr2
1.0
   3.2360300000000000    0.0000000000000000    0.0000000000000002
   1.6180150000000006    2.8024841874085564    0.0000000000000002
   0.0000000000000000    0.0000000000000000    5.1895300000000004
Zr
2
direct
   0.0000000000000000    0.0000000000000000    0.0000000000000000 Zr
   0.3333333333333333    0.3333333333333333    0.5000000000000000 Zr
