F8                                      
   1.00000000000000     
     6.1200587254084926    0.0000000000000000   -0.7271057746651285
     0.0000000000000006    3.6850499999999999    0.0000000000000002
     0.0000000000000000    0.0000000000000000    6.9254300000000004
   F 
     8
Direct
  0.2550000000000026  0.3303000000000011  0.0941299999999998
  0.7449999999999974  0.6696999999999989  0.9058700000000002
  0.7449999999999974  0.3303000000000011  0.4058700000000002
  0.2550000000000026  0.6696999999999989  0.5941299999999998
  0.7550000000000026  0.8303000000000011  0.0941299999999998
  0.2449999999999974  0.1696999999999989  0.9058700000000002
  0.2449999999999974  0.8303000000000011  0.4058700000000002
  0.7550000000000026  0.1696999999999989  0.5941299999999998
 
  0.00000000E+00  0.00000000E+00  0.00000000E+00
  0.00000000E+00  0.00000000E+00  0.00000000E+00
  0.00000000E+00  0.00000000E+00  0.00000000E+00
  0.00000000E+00  0.00000000E+00  0.00000000E+00
  0.00000000E+00  0.00000000E+00  0.00000000E+00
  0.00000000E+00  0.00000000E+00  0.00000000E+00
  0.00000000E+00  0.00000000E+00  0.00000000E+00
  0.00000000E+00  0.00000000E+00  0.00000000E+00
