Rb2
1.0
   5.6719700000000000    0.0000000000000000    0.0000000000000003
   0.0000000000000009    5.6719700000000000    0.0000000000000003
   0.0000000000000000    0.0000000000000000    5.6719700000000000
Rb
2
direct
   0.0000000000000000    0.0000000000000000    0.0000000000000000 Rb
   0.5000000000000000    0.5000000000000000    0.5000000000000000 Rb
