Si2
1.0
   3.3489981787207648    0.0000000000000000    1.9335450000000005
   1.1163327262402551    3.1574657631398000    1.9335450000000005
   0.0000000000000000    0.0000000000000000    3.8670900000000001
Si
2
direct
   0.0000000000000000    0.0000000000000000    0.0000000000000000 Si
   0.2500000000000000    0.2500000000000000    0.2500000000000000 Si
