ENCUT = 350.8232
IBRION = -1
ISMEAR = 0
ISPIN = 2
ISYM = 2
LCHARG = True
LWAVE = True
LORBIT=11
MAGMOM = 1*3.0 1*-3.0 1*3.0 1*-3.0
SIGMA = 0.05
SYSTEM = Mn
