C4
1.0
   2.4685700000000002    0.0000000000000000    0.0000000000000002
  -1.2342849999999994    2.1378443310201525    0.0000000000000002
   0.0000000000000000    0.0000000000000000    8.8407900000000001
C
4
direct
   0.0000000000000000    0.0000000000000000    0.2500000000000000 C
   0.0000000000000000    0.0000000000000000    0.7500000000000000 C
   0.3333333333333333    0.6666666666666666    0.2500000000000000 C
   0.6666666666666666    0.3333333333333333    0.7500000000000000 C
