Hf2                                     
   1.00000000000000     
     3.2027299999999999    0.0000000000000000    0.0000000000000002
     1.6013650000000006    2.7736455414625345    0.0000000000000002
     0.0000000000000000    0.0000000000000000    5.0649300000000004
   Hf
     2
Direct
  0.0000000000000000  0.0000000000000000  0.0000000000000000
  0.3333333333333357  0.3333333333333357  0.5000000000000000
 
  0.00000000E+00  0.00000000E+00  0.00000000E+00
  0.00000000E+00  0.00000000E+00  0.00000000E+00
