As6                                     
   1.00000000000000     
     3.8205499999999999    0.0000000000000000    0.0000000000000002
    -1.9102749999999988    3.3086933564286376    0.0000000000000002
     0.0000000000000000    0.0000000000000000   10.7896300000000007
   As
     6
Direct
  0.0000000000000000  0.0000000000000000  0.2265700000000024
  0.0000000000000000  0.0000000000000000  0.7734299999999976
  0.6666666666666643  0.3333333333333357  0.5598999999999990
  0.6666666666666643  0.3333333333333357  0.1067600000000013
  0.3333333333333357  0.6666666666666643  0.8932399999999987
  0.3333333333333357  0.6666666666666643  0.4401000000000010
 
  0.00000000E+00  0.00000000E+00  0.00000000E+00
  0.00000000E+00  0.00000000E+00  0.00000000E+00
  0.00000000E+00  0.00000000E+00  0.00000000E+00
  0.00000000E+00  0.00000000E+00  0.00000000E+00
  0.00000000E+00  0.00000000E+00  0.00000000E+00
  0.00000000E+00  0.00000000E+00  0.00000000E+00
