As6
1.0
   3.8205499999999999    0.0000000000000000    0.0000000000000002
  -1.9102749999999988    3.3086933564286376    0.0000000000000002
   0.0000000000000000    0.0000000000000000   10.7896300000000007
As
6
direct
   0.0000000000000000    0.0000000000000000    0.2265700000000000 As
   0.0000000000000000    0.0000000000000000    0.7734300000000000 As
   0.6666666666666666    0.3333333333333333    0.5599000000000000 As
   0.6666666666666666    0.3333333333333333    0.1067600000000000 As
   0.3333333333333333    0.6666666666666666    0.8932400000000000 As
   0.3333333333333333    0.6666666666666666    0.4401000000000000 As
