Kr4                                     
   1.00000000000000     
     6.4292999999999996    0.0000000000000000    0.0000000000000004
     0.0000000000000010    6.4292999999999996    0.0000000000000004
     0.0000000000000000    0.0000000000000000    6.4292999999999996
   Kr
     4
Direct
  0.0000000000000000  0.0000000000000000  0.0000000000000000
  0.0000000000000000  0.5000000000000000  0.5000000000000000
  0.5000000000000000  0.0000000000000000  0.5000000000000000
  0.5000000000000000  0.5000000000000000  0.0000000000000000
 
  0.00000000E+00  0.00000000E+00  0.00000000E+00
  0.00000000E+00  0.00000000E+00  0.00000000E+00
  0.00000000E+00  0.00000000E+00  0.00000000E+00
  0.00000000E+00  0.00000000E+00  0.00000000E+00
