Zn2
1.0
   2.6616900000000001    0.0000000000000000    0.0000000000000002
   1.3308450000000007    2.3050911569990022    0.0000000000000002
   0.0000000000000000    0.0000000000000000    5.0039699999999998
Zn
2
direct
   0.0000000000000000    0.0000000000000000    0.0000000000000000 Zn
   0.3333333333333333    0.3333333333333333    0.5000000000000000 Zn
