Te3
1.0
   4.5078800000000001    0.0000000000000000    0.0000000000000003
  -2.2539399999999987    3.9039385972117961    0.0000000000000003
   0.0000000000000000    0.0000000000000000    5.9634600000000004
Te
3
direct
   0.2696600000000000    0.0000000000000000    0.3333333333333333 Te
   0.0000000000000000    0.2696600000000000    0.6666666666666666 Te
   0.7303400000000000    0.7303400000000000    0.0000000000000000 Te
