Pb4                                     
   1.00000000000000     
     5.0438599999999996    0.0000000000000000    0.0000000000000003
     0.0000000000000008    5.0438599999999996    0.0000000000000003
     0.0000000000000000    0.0000000000000000    5.0438599999999996
   Pb
     4
Direct
  0.0000000000000000  0.0000000000000000  0.0000000000000000
  0.0000000000000000  0.5000000000000000  0.5000000000000000
  0.5000000000000000  0.0000000000000000  0.5000000000000000
  0.5000000000000000  0.5000000000000000  0.0000000000000000
 
  0.00000000E+00  0.00000000E+00  0.00000000E+00
  0.00000000E+00  0.00000000E+00  0.00000000E+00
  0.00000000E+00  0.00000000E+00  0.00000000E+00
  0.00000000E+00  0.00000000E+00  0.00000000E+00
