Pb4
1.0
   5.0438599999999996    0.0000000000000000    0.0000000000000003
   0.0000000000000008    5.0438599999999996    0.0000000000000003
   0.0000000000000000    0.0000000000000000    5.0438599999999996
Pb
4
direct
   0.0000000000000000    0.0000000000000000    0.0000000000000000 Pb
   0.0000000000000000    0.5000000000000000    0.5000000000000000 Pb
   0.5000000000000000    0.0000000000000000    0.5000000000000000 Pb
   0.5000000000000000    0.5000000000000000    0.0000000000000000 Pb
