He2                                     
   1.00000000000000     
     2.9266100000000002    0.0000000000000000    0.0000000000000002
     1.4633050000000007    2.5345186069695758    0.0000000000000002
     0.0000000000000000    0.0000000000000000    4.7791300000000003
   He
     2
Direct
  0.0000000000000000  0.0000000000000000  0.0000000000000000
  0.3333333333333357  0.3333333333333357  0.5000000000000000
 
  0.00000000E+00  0.00000000E+00  0.00000000E+00
  0.00000000E+00  0.00000000E+00  0.00000000E+00
