He2
1.0
   2.9266100000000002    0.0000000000000000    0.0000000000000002
   1.4633050000000007    2.5345186069695758    0.0000000000000002
   0.0000000000000000    0.0000000000000000    4.7791300000000003
He
2
direct
   0.0000000000000000    0.0000000000000000    0.0000000000000000 He
   0.3333333333333333    0.3333333333333333    0.5000000000000000 He
