W2
1.0
   3.1896800000000001    0.0000000000000000    0.0000000000000002
   0.0000000000000005    3.1896800000000001    0.0000000000000002
   0.0000000000000000    0.0000000000000000    3.1896800000000001
W
2
direct
   0.0000000000000000    0.0000000000000000    0.0000000000000000 W
   0.5000000000000000    0.5000000000000000    0.5000000000000000 W
