ENCUT = 275.0215
IBRION = -1
ISMEAR = 0
ISYM = 2
LCHARG = True
LWAVE = True
SIGMA = 0.05
SYSTEM = Se
