Se3
1.0
   4.5246399999999998    0.0000000000000000    0.0000000000000003
  -2.2623199999999986    3.9184531829792228    0.0000000000000003
   0.0000000000000000    0.0000000000000000    5.0497800000000002
Se
3
direct
   0.2190300000000000    0.0000000000000000    0.3333333333333333 Se
   0.0000000000000000    0.2190300000000000    0.6666666666666666 Se
   0.7809700000000001    0.7809700000000001    0.0000000000000000 Se
