Xe4                                     
   1.00000000000000     
     7.0548200000000003    0.0000000000000000    0.0000000000000004
     0.0000000000000011    7.0548200000000003    0.0000000000000004
     0.0000000000000000    0.0000000000000000    7.0548200000000003
   Xe
     4
Direct
  0.0000000000000000  0.0000000000000000  0.0000000000000000
  0.0000000000000000  0.5000000000000000  0.5000000000000000
  0.5000000000000000  0.0000000000000000  0.5000000000000000
  0.5000000000000000  0.5000000000000000  0.0000000000000000
 
  0.00000000E+00  0.00000000E+00  0.00000000E+00
  0.00000000E+00  0.00000000E+00  0.00000000E+00
  0.00000000E+00  0.00000000E+00  0.00000000E+00
  0.00000000E+00  0.00000000E+00  0.00000000E+00
