Xe4
1.0
   7.0548200000000003    0.0000000000000000    0.0000000000000004
   0.0000000000000011    7.0548200000000003    0.0000000000000004
   0.0000000000000000    0.0000000000000000    7.0548200000000003
Xe
4
direct
   0.0000000000000000    0.0000000000000000    0.0000000000000000 Xe
   0.0000000000000000    0.5000000000000000    0.5000000000000000 Xe
   0.5000000000000000    0.0000000000000000    0.5000000000000000 Xe
   0.5000000000000000    0.5000000000000000    0.0000000000000000 Xe
