Hg2                                     
   1.00000000000000     
     4.1030499999999996    0.0000000000000000    0.0000000000000003
     0.0000000000000007    4.1030499999999996    0.0000000000000003
     0.0000000000000000    0.0000000000000000    3.5483099999999999
   Hg
     2
Direct
  0.0000000000000000  0.0000000000000000  0.0000000000000000
  0.5000000000000000  0.5000000000000000  0.5000000000000000
 
  0.00000000E+00  0.00000000E+00  0.00000000E+00
  0.00000000E+00  0.00000000E+00  0.00000000E+00
