Na3                                     
   1.00000000000000     
     3.6681555051278734    0.0000000000000000    8.6744341537128555
     1.7586878855024708    3.2190653505616766    8.6744341537128555
     0.0000000000000000    0.0000000000000000    9.4181299999999997
   Na
     3
Direct
  0.0000000000000000  0.0000000000000000  0.0000000000000000
  0.2222200000000001  0.2222200000000001  0.2222200000000001
  0.7777799999999999  0.7777799999999999  0.7777799999999999
 
  0.00000000E+00  0.00000000E+00  0.00000000E+00
  0.00000000E+00  0.00000000E+00  0.00000000E+00
  0.00000000E+00  0.00000000E+00  0.00000000E+00
