Li3                                     
   1.00000000000000     
     3.0121842099161107    0.0000000000000000    7.0211792091593885
     1.4425188551582813    2.6443133450823839    7.0211792091593885
     0.0000000000000000    0.0000000000000000    7.6400399999999999
   Li
     3
Direct
  0.0000000000000000  0.0000000000000000  0.0000000000000000
  0.2222200000000001  0.2222200000000001  0.2222200000000001
  0.7777799999999999  0.7777799999999999  0.7777799999999999
 
  0.00000000E+00  0.00000000E+00  0.00000000E+00
  0.00000000E+00  0.00000000E+00  0.00000000E+00
  0.00000000E+00  0.00000000E+00  0.00000000E+00
