Al4
1.0
   4.0402100000000001    0.0000000000000000    0.0000000000000002
   0.0000000000000006    4.0402100000000001    0.0000000000000002
   0.0000000000000000    0.0000000000000000    4.0402100000000001
Al
4
direct
   0.0000000000000000    0.0000000000000000    0.0000000000000000 Al
   0.0000000000000000    0.5000000000000000    0.5000000000000000 Al
   0.5000000000000000    0.0000000000000000    0.5000000000000000 Al
   0.5000000000000000    0.5000000000000000    0.0000000000000000 Al
