Cl8
1.0
   7.7787499999999996    0.0000000000000000    0.0000000000000005
   0.0000000000000007    4.3494099999999998    0.0000000000000003
   0.0000000000000000    0.0000000000000000    9.0275400000000001
Cl
8
direct
   0.0000000000000000    0.4088200000000000    0.8984799999999999 Cl
   0.0000000000000000    0.0911800000000000    0.3984800000000000 Cl
   0.0000000000000000    0.9088200000000000    0.6015200000000001 Cl
   0.0000000000000000    0.5911800000000000    0.1015200000000000 Cl
   0.5000000000000000    0.9088200000000000    0.8984799999999999 Cl
   0.5000000000000000    0.5911800000000000    0.3984800000000000 Cl
   0.5000000000000000    0.4088200000000000    0.6015200000000001 Cl
   0.5000000000000000    0.0911800000000000    0.1015200000000000 Cl
