ENCUT = 315.4788
IBRION = -1
ISMEAR = 0
ISYM = 2
LCHARG = True
LWAVE = True
SIGMA = 0.05
SYSTEM = Mo
