B12                                     
   1.00000000000000     
     4.2853784336072369    0.0000000000000000    2.3774141687291217
    -1.4832260891894367    4.0205109983152427   -2.3774141687291204
     0.0000000000000000    0.0000000000000000    5.0509800000000000
   B 
    12
Direct
  0.9896900000000031  0.0103099999999969  0.6746499999999997
  0.0103099999999969  0.9896900000000031  0.3253500000000003
  0.9896900000000031  0.6540400000000020  0.6746499999999997
  0.0103099999999969  0.3459599999999980  0.3253500000000003
  0.3459599999999980  0.0103099999999969  0.6746499999999997
  0.6540400000000020  0.9896900000000031  0.3253500000000003
  0.7788499999999985  0.2211500000000015  0.0727400000000031
  0.2211500000000015  0.7788499999999985  0.9272599999999969
  0.7788499999999985  0.6304299999999969  0.0727400000000031
  0.2211500000000015  0.3695700000000031  0.9272599999999969
  0.3695700000000031  0.2211500000000015  0.0727400000000031
  0.6304299999999969  0.7788499999999985  0.9272599999999969
 
  0.00000000E+00  0.00000000E+00  0.00000000E+00
  0.00000000E+00  0.00000000E+00  0.00000000E+00
  0.00000000E+00  0.00000000E+00  0.00000000E+00
  0.00000000E+00  0.00000000E+00  0.00000000E+00
  0.00000000E+00  0.00000000E+00  0.00000000E+00
  0.00000000E+00  0.00000000E+00  0.00000000E+00
  0.00000000E+00  0.00000000E+00  0.00000000E+00
  0.00000000E+00  0.00000000E+00  0.00000000E+00
  0.00000000E+00  0.00000000E+00  0.00000000E+00
  0.00000000E+00  0.00000000E+00  0.00000000E+00
  0.00000000E+00  0.00000000E+00  0.00000000E+00
  0.00000000E+00  0.00000000E+00  0.00000000E+00
