Sn2
1.0
   4.0759225821493468    0.0000000000000000    2.3532350000000006
   1.3586408607164491    3.8428166632389145    2.3532350000000006
   0.0000000000000000    0.0000000000000000    4.7064700000000004
Sn
2
direct
   0.0000000000000000    0.0000000000000000    0.0000000000000000 Sn
   0.2500000000000000    0.2500000000000000    0.2500000000000000 Sn
