Tc2
1.0
   2.7618700000000000    0.0000000000000000    0.0000000000000002
   1.3809350000000007    2.3918495819501273    0.0000000000000002
   0.0000000000000000    0.0000000000000000    4.4190500000000004
Tc
2
direct
   0.0000000000000000    0.0000000000000000    0.0000000000000000 Tc
   0.3333333333333333    0.3333333333333333    0.5000000000000000 Tc
