ENCUT = 298.86740000000003
IBRION = -1
ISMEAR = 0
ISYM = 2
LCHARG = True
LWAVE = True
SIGMA = 0.05
SYSTEM = Zr
