Te3                                     
   1.00000000000000     
     4.5078800000000001    0.0000000000000000    0.0000000000000003
    -2.2539399999999987    3.9039385972117961    0.0000000000000003
     0.0000000000000000    0.0000000000000000    5.9634600000000004
   Te
     3
Direct
  0.2696600000000018  0.0000000000000000  0.3333333333333357
  0.0000000000000000  0.2696600000000018  0.6666666666666643
  0.7303399999999982  0.7303399999999982  0.0000000000000000
 
  0.00000000E+00  0.00000000E+00  0.00000000E+00
  0.00000000E+00  0.00000000E+00  0.00000000E+00
  0.00000000E+00  0.00000000E+00  0.00000000E+00
