Ti2
1.0
   2.9366400000000001    0.0000000000000000    0.0000000000000002
   1.4683200000000007    2.5432048417695334    0.0000000000000002
   0.0000000000000000    0.0000000000000000    4.6519300000000001
Ti
2
direct
   0.0000000000000000    0.0000000000000000    0.0000000000000000 Ti
   0.3333333333333333    0.3333333333333333    0.5000000000000000 Ti
