Cd2                                     
   1.00000000000000     
     3.0371600000000001    0.0000000000000000    0.0000000000000002
     1.5185800000000007    2.6302577153579452    0.0000000000000002
     0.0000000000000000    0.0000000000000000    5.7706099999999996
   Cd
     2
Direct
  0.0000000000000000  0.0000000000000000  0.0000000000000000
  0.3333333333333357  0.3333333333333357  0.5000000000000000
 
  0.00000000E+00  0.00000000E+00  0.00000000E+00
  0.00000000E+00  0.00000000E+00  0.00000000E+00
