Cd2
1.0
   3.0371600000000001    0.0000000000000000    0.0000000000000002
   1.5185800000000007    2.6302577153579452    0.0000000000000002
   0.0000000000000000    0.0000000000000000    5.7706099999999996
Cd
2
direct
   0.0000000000000000    0.0000000000000000    0.0000000000000000 Cd
   0.3333333333333333    0.3333333333333333    0.5000000000000000 Cd
