Br8
1.0
   8.2286000000000001    0.0000000000000000    0.0000000000000005
   0.0000000000000007    4.2273100000000001    0.0000000000000003
   0.0000000000000000    0.0000000000000000    9.0332299999999996
Br
8
direct
   0.0000000000000000    0.3757400000000000    0.8828400000000000 Br
   0.0000000000000000    0.1242600000000000    0.3828400000000000 Br
   0.0000000000000000    0.8757400000000000    0.6171600000000000 Br
   0.0000000000000000    0.6242600000000000    0.1171600000000000 Br
   0.5000000000000000    0.8757400000000000    0.8828400000000000 Br
   0.5000000000000000    0.6242600000000000    0.3828400000000000 Br
   0.5000000000000000    0.3757400000000000    0.6171600000000000 Br
   0.5000000000000000    0.1242600000000000    0.1171600000000000 Br
