Cs2
1.0
   6.1615300000000000    0.0000000000000000    0.0000000000000004
   0.0000000000000010    6.1615300000000000    0.0000000000000004
   0.0000000000000000    0.0000000000000000    6.1615300000000000
Cs
2
direct
   0.0000000000000000    0.0000000000000000    0.0000000000000000 Cs
   0.5000000000000000    0.5000000000000000    0.5000000000000000 Cs
