Ga8
1.0
   4.5668899999999999    0.0000000000000000    0.0000000000000003
   0.0000000000000012    7.7533000000000003    0.0000000000000005
   0.0000000000000000    0.0000000000000000    4.5997800000000000
Ga
8
direct
   0.0000000000000000    0.1564200000000000    0.0812000000000000 Ga
   0.0000000000000000    0.8435800000000000    0.9188000000000000 Ga
   0.0000000000000000    0.3435800000000000    0.5812000000000000 Ga
   0.0000000000000000    0.6564200000000000    0.4188000000000000 Ga
   0.5000000000000000    0.6564200000000000    0.0812000000000000 Ga
   0.5000000000000000    0.3435800000000000    0.9188000000000000 Ga
   0.5000000000000000    0.8435800000000000    0.5812000000000000 Ga
   0.5000000000000000    0.1564200000000000    0.4188000000000000 Ga
