Ba2
1.0
   5.0279199999999999    0.0000000000000000    0.0000000000000003
   0.0000000000000008    5.0279199999999999    0.0000000000000003
   0.0000000000000000    0.0000000000000000    5.0279199999999999
Ba
2
direct
   0.0000000000000000    0.0000000000000000    0.0000000000000000 Ba
   0.5000000000000000    0.5000000000000000    0.5000000000000000 Ba
