Zn2                                     
   1.00000000000000     
     2.6616900000000001    0.0000000000000000    0.0000000000000002
     1.3308450000000007    2.3050911569990022    0.0000000000000002
     0.0000000000000000    0.0000000000000000    5.0039699999999998
   Zn
     2
Direct
  0.0000000000000000  0.0000000000000000  0.0000000000000000
  0.3333333333333357  0.3333333333333357  0.5000000000000000
 
  0.00000000E+00  0.00000000E+00  0.00000000E+00
  0.00000000E+00  0.00000000E+00  0.00000000E+00
