H4                                      
   1.00000000000000     
     4.0075900000000004    0.0000000000000000    0.0000000000000002
    -2.0037949999999989    3.4706747479524793    0.0000000000000002
     0.0000000000000000    0.0000000000000000    5.0030700000000001
   H 
     4
Direct
  0.3333333333333357  0.6666666666666643  0.1749799999999979
  0.6666666666666643  0.3333333333333357  0.8250200000000021
  0.6666666666666643  0.3333333333333357  0.6749799999999979
  0.3333333333333357  0.6666666666666643  0.3250200000000021
 
  0.00000000E+00  0.00000000E+00  0.00000000E+00
  0.00000000E+00  0.00000000E+00  0.00000000E+00
  0.00000000E+00  0.00000000E+00  0.00000000E+00
  0.00000000E+00  0.00000000E+00  0.00000000E+00
