H4
1.0
   4.0075900000000004    0.0000000000000000    0.0000000000000002
  -2.0037949999999989    3.4706747479524793    0.0000000000000002
   0.0000000000000000    0.0000000000000000    5.0030700000000001
H
4
direct
   0.3333333333333333    0.6666666666666666    0.1749800000000000 H
   0.6666666666666666    0.3333333333333333    0.8250200000000000 H
   0.6666666666666666    0.3333333333333333    0.6749800000000000 H
   0.3333333333333333    0.6666666666666666    0.3250200000000000 H
