O4                                      
   1.00000000000000     
     3.9238903819437687    0.0000000000000000    1.6881667948959269
    -0.0000000000000003    4.2768199999999998    0.0000000000000003
     0.0000000000000000    0.0000000000000000    4.5714800000000002
   O 
     4
Direct
  0.9378200000000021  0.0000000000000000  0.1466700000000003
  0.0621799999999979  0.0000000000000000  0.8533299999999997
  0.4378200000000021  0.5000000000000000  0.1466700000000003
  0.5621799999999979  0.5000000000000000  0.8533299999999997
 
  0.00000000E+00  0.00000000E+00  0.00000000E+00
  0.00000000E+00  0.00000000E+00  0.00000000E+00
  0.00000000E+00  0.00000000E+00  0.00000000E+00
  0.00000000E+00  0.00000000E+00  0.00000000E+00
