ENCUT = 228.34109999999998
IBRION = -1
ISMEAR = 0
ISYM = 2
LCHARG = True
LWAVE = True
SIGMA = 0.05
SYSTEM = I
