I8
1.0
   8.5770099999999996    0.0000000000000000    0.0000000000000005
   0.0000000000000007    4.5542199999999999    0.0000000000000003
   0.0000000000000000    0.0000000000000000   10.1838099999999994
I
8
direct
   0.0000000000000000    0.3641000000000000    0.8785700000000000 I
   0.0000000000000000    0.1359000000000000    0.3785700000000000 I
   0.0000000000000000    0.8641000000000000    0.6214300000000000 I
   0.0000000000000000    0.6359000000000000    0.1214300000000000 I
   0.5000000000000000    0.8641000000000000    0.8785700000000000 I
   0.5000000000000000    0.6359000000000000    0.3785700000000000 I
   0.5000000000000000    0.3641000000000000    0.6214300000000000 I
   0.5000000000000000    0.1359000000000000    0.1214300000000000 I
