Ne4
1.0
   4.6226200000000004    0.0000000000000000    0.0000000000000003
   0.0000000000000007    4.6226200000000004    0.0000000000000003
   0.0000000000000000    0.0000000000000000    4.6226200000000004
Ne
4
direct
   0.0000000000000000    0.0000000000000000    0.0000000000000000 Ne
   0.0000000000000000    0.5000000000000000    0.5000000000000000 Ne
   0.5000000000000000    0.0000000000000000    0.5000000000000000 Ne
   0.5000000000000000    0.5000000000000000    0.0000000000000000 Ne
