Sb6                                     
   1.00000000000000     
     4.3804699999999999    0.0000000000000000    0.0000000000000003
    -2.1902349999999986    3.7935983005156206    0.0000000000000003
     0.0000000000000000    0.0000000000000000   11.4780400000000000
   Sb
     6
Direct
  0.0000000000000000  0.0000000000000000  0.2333199999999991
  0.0000000000000000  0.0000000000000000  0.7666800000000009
  0.6666666666666643  0.3333333333333357  0.5666599999999988
  0.6666666666666643  0.3333333333333357  0.1000099999999975
  0.3333333333333357  0.6666666666666643  0.8999900000000025
  0.3333333333333357  0.6666666666666643  0.4333400000000012
 
  0.00000000E+00  0.00000000E+00  0.00000000E+00
  0.00000000E+00  0.00000000E+00  0.00000000E+00
  0.00000000E+00  0.00000000E+00  0.00000000E+00
  0.00000000E+00  0.00000000E+00  0.00000000E+00
  0.00000000E+00  0.00000000E+00  0.00000000E+00
  0.00000000E+00  0.00000000E+00  0.00000000E+00
