Sb6
1.0
   4.3804699999999999    0.0000000000000000    0.0000000000000003
  -2.1902349999999986    3.7935983005156206    0.0000000000000003
   0.0000000000000000    0.0000000000000000   11.4780400000000000
Sb
6
direct
   0.0000000000000000    0.0000000000000000    0.2333200000000000 Sb
   0.0000000000000000    0.0000000000000000    0.7666800000000000 Sb
   0.6666666666666666    0.3333333333333333    0.5666600000000001 Sb
   0.6666666666666666    0.3333333333333333    0.1000100000000000 Sb
   0.3333333333333333    0.6666666666666666    0.8999900000000000 Sb
   0.3333333333333333    0.6666666666666666    0.4333400000000000 Sb
