Cu4                                     
   1.00000000000000     
     3.6368900000000002    0.0000000000000000    0.0000000000000002
     0.0000000000000006    3.6368900000000002    0.0000000000000002
     0.0000000000000000    0.0000000000000000    3.6368900000000002
   Cu
     4
Direct
  0.0000000000000000  0.0000000000000000  0.0000000000000000
  0.0000000000000000  0.5000000000000000  0.5000000000000000
  0.5000000000000000  0.0000000000000000  0.5000000000000000
  0.5000000000000000  0.5000000000000000  0.0000000000000000
 
  0.00000000E+00  0.00000000E+00  0.00000000E+00
  0.00000000E+00  0.00000000E+00  0.00000000E+00
  0.00000000E+00  0.00000000E+00  0.00000000E+00
  0.00000000E+00  0.00000000E+00  0.00000000E+00
