ENCUT = 520.0
IBRION = -1
ISMEAR = 0
ISPIN = 2
ISYM = 2
LCHARG = True
LWAVE = True
LORBIT=11
MAGMOM = 2*3.0 2*-3.0
SIGMA = 0.05
SYSTEM = O
