Cs2                                     
   1.00000000000000     
     6.1615300000000000    0.0000000000000000    0.0000000000000004
     0.0000000000000010    6.1615300000000000    0.0000000000000004
     0.0000000000000000    0.0000000000000000    6.1615300000000000
   Cs
     2
Direct
  0.0000000000000000  0.0000000000000000  0.0000000000000000
  0.5000000000000000  0.5000000000000000  0.5000000000000000
 
  0.00000000E+00  0.00000000E+00  0.00000000E+00
  0.00000000E+00  0.00000000E+00  0.00000000E+00
