Sr4
1.0
   6.0196899999999998    0.0000000000000000    0.0000000000000004
   0.0000000000000010    6.0196899999999998    0.0000000000000004
   0.0000000000000000    0.0000000000000000    6.0196899999999998
Sr
4
direct
   0.0000000000000000    0.0000000000000000    0.0000000000000000 Sr
   0.0000000000000000    0.5000000000000000    0.5000000000000000 Sr
   0.5000000000000000    0.0000000000000000    0.5000000000000000 Sr
   0.5000000000000000    0.5000000000000000    0.0000000000000000 Sr
