Au4
1.0
   4.1741000000000001    0.0000000000000000    0.0000000000000003
   0.0000000000000007    4.1741000000000001    0.0000000000000003
   0.0000000000000000    0.0000000000000000    4.1741000000000001
Au
4
direct
   0.0000000000000000    0.0000000000000000    0.0000000000000000 Au
   0.0000000000000000    0.5000000000000000    0.5000000000000000 Au
   0.5000000000000000    0.0000000000000000    0.5000000000000000 Au
   0.5000000000000000    0.5000000000000000    0.0000000000000000 Au
