In2                                     
   1.00000000000000     
     3.2984100000000001    0.0000000000000000    0.0000000000000002
     0.0000000000000005    3.2984100000000001    0.0000000000000002
     0.0000000000000000    0.0000000000000000    5.0625600000000004
   In
     2
Direct
  0.0000000000000000  0.0000000000000000  0.0000000000000000
  0.5000000000000000  0.5000000000000000  0.5000000000000000
 
  0.00000000E+00  0.00000000E+00  0.00000000E+00
  0.00000000E+00  0.00000000E+00  0.00000000E+00
