ENCUT = 290.7671
IBRION = -1
ISMEAR = 0
ISYM = 2
LCHARG = True
LSORBIT = True
LWAVE = True
SAXIS = 0 0 1
SIGMA = 0.05
SYSTEM = Ta
