Tc2                                     
   1.00000000000000     
     2.7618700000000000    0.0000000000000000    0.0000000000000002
     1.3809350000000007    2.3918495819501273    0.0000000000000002
     0.0000000000000000    0.0000000000000000    4.4190500000000004
   Tc
     2
Direct
  0.0000000000000000  0.0000000000000000  0.0000000000000000
  0.3333333333333357  0.3333333333333357  0.5000000000000000
 
  0.00000000E+00  0.00000000E+00  0.00000000E+00
  0.00000000E+00  0.00000000E+00  0.00000000E+00
