F8
1.0
   6.1200587254084926    0.0000000000000000   -0.7271057746651285
   0.0000000000000006    3.6850499999999999    0.0000000000000002
   0.0000000000000000    0.0000000000000000    6.9254300000000004
F
8
direct
   0.2550000000000000    0.3303000000000000    0.0941300000000000 F
   0.7450000000000000    0.6697000000000000    0.9058700000000000 F
   0.7450000000000000    0.3303000000000000    0.4058700000000000 F
   0.2550000000000000    0.6697000000000000    0.5941300000000000 F
   0.7550000000000000    0.8303000000000000    0.0941300000000000 F
   0.2450000000000000    0.1697000000000000    0.9058700000000000 F
   0.2450000000000000    0.8303000000000000    0.4058700000000000 F
   0.7550000000000000    0.1697000000000000    0.5941300000000000 F
