&GLOBAL
  PROJECT  WSe2
  PRINT_LEVEL MEDIUM
  RUN_TYPE ENERGY
  &TIMINGS
     THRESHOLD 0.0001
  &END
&END GLOBAL
&FORCE_EVAL
  METHOD Quickstep
  &DFT
    BASIS_SET_FILE_NAME /hppfs/scratch/04/di38fab/09_GTH/BASIS_AUG_MOLOPT_new/BASIS_GTH_MOLOPT_AUG_for_excited_states
    BASIS_SET_FILE_NAME /hppfs/scratch/04/di38fab/09_GTH/BASIS_AUG_MOLOPT_new/BASIS_GTH_MOLOPT_AUG_for_excited_states_RI
    BASIS_SET_FILE_NAME BASIS_MOLOPT_UZH
    SORT_BASIS EXP
    POTENTIAL_FILE_NAME /hppfs/work/pn36zo/di38fab/cp2k/data/GTH_SOC_POTENTIALS
    CHARGE 0
    &MGRID
      CUTOFF  1000
      REL_CUTOFF  100
    &END MGRID
    &QS
      METHOD GPW
      EPS_DEFAULT 1.0E-16
      EPS_PGF_ORB 1.0E-16
    &END QS
    &SCF
      SCF_GUESS ATOMIC
      EPS_SCF 1.0E-9
      MAX_SCF 500
      &PRINT
        &RESTART ON
        &END
      &END
      ADDED_MOS -1
      &MIXING
          METHOD BROYDEN_MIXING
          ALPHA 0.05
          BETA 1.5
          NBROYDEN 8
      &END
    &END SCF
    &XC
      &XC_FUNCTIONAL PBE
      &END XC_FUNCTIONAL
    &END XC
    &KPOINTS
SCHEME MONKHORST-PACK 12 12 12
      PARALLEL_GROUP_SIZE   -1
    &END KPOINTS
&PRINT
&BAND_STRUCTURE
ADDED_MOS -1
FILE_NAME B.bs
&KPOINT_SET
SPECIAL_POINT  0.0 0.0 0.0   #GAMMA
SPECIAL_POINT  0.3714397838049094 0.3714397838049094 0.0   #C
SPECIAL_POINT  -0.5 0.5 0.0   #Y_2
SPECIAL_POINT  0.0 0.0 0.0   #GAMMA
NPOINTS 49
&END
&END BAND_STRUCTURE
&END PRINT
  &END DFT
    &SUBSYS
    &CELL
         CELL_FILE_NAME B.cif
      CELL_FILE_FORMAT = CIF
      PERIODIC XYZ
    &END CELL
     &KIND B
      BASIS_SET ORB aug-SZV-MOLOPT-GTH-tier-2-SR
      POTENTIAL GTH-PBE
     &END KIND

 

    &TOPOLOGY
        COORD_FILE_NAME B.cif
      COORD_FILE_FORMAT = CIF
    &END TOPOLOGY
  &END SUBSYS
&END FORCE_EVAL
