B12
1.0
   4.2853784336072369    0.0000000000000000    2.3774141687291217
  -1.4832260891894367    4.0205109983152427   -2.3774141687291204
   0.0000000000000000    0.0000000000000000    5.0509800000000000
B
12
direct
   0.9896900000000000    0.0103100000000000    0.6746500000000000 B
   0.0103100000000000    0.9896900000000000    0.3253500000000000 B
   0.9896900000000000    0.6540400000000000    0.6746500000000000 B
   0.0103100000000000    0.3459600000000000    0.3253500000000000 B
   0.3459600000000000    0.0103100000000000    0.6746500000000000 B
   0.6540400000000000    0.9896900000000000    0.3253500000000000 B
   0.7788500000000000    0.2211500000000000    0.0727400000000000 B
   0.2211500000000000    0.7788500000000000    0.9272600000000000 B
   0.7788500000000000    0.6304300000000000    0.0727400000000000 B
   0.2211500000000000    0.3695700000000000    0.9272600000000000 B
   0.3695700000000000    0.2211500000000000    0.0727400000000000 B
   0.6304300000000000    0.7788500000000000    0.9272600000000000 B
