Cl8                                     
   1.00000000000000     
     7.7787499999999996    0.0000000000000000    0.0000000000000005
     0.0000000000000007    4.3494099999999998    0.0000000000000003
     0.0000000000000000    0.0000000000000000    9.0275400000000001
   Cl
     8
Direct
  0.0000000000000000  0.4088199999999986  0.8984799999999993
  0.0000000000000000  0.0911800000000014  0.3984799999999993
  0.0000000000000000  0.9088199999999986  0.6015200000000007
  0.0000000000000000  0.5911800000000014  0.1015200000000007
  0.5000000000000000  0.9088199999999986  0.8984799999999993
  0.5000000000000000  0.5911800000000014  0.3984799999999993
  0.5000000000000000  0.4088199999999986  0.6015200000000007
  0.5000000000000000  0.0911800000000014  0.1015200000000007
 
  0.00000000E+00  0.00000000E+00  0.00000000E+00
  0.00000000E+00  0.00000000E+00  0.00000000E+00
  0.00000000E+00  0.00000000E+00  0.00000000E+00
  0.00000000E+00  0.00000000E+00  0.00000000E+00
  0.00000000E+00  0.00000000E+00  0.00000000E+00
  0.00000000E+00  0.00000000E+00  0.00000000E+00
  0.00000000E+00  0.00000000E+00  0.00000000E+00
  0.00000000E+00  0.00000000E+00  0.00000000E+00
