In2
1.0
   3.2984100000000001    0.0000000000000000    0.0000000000000002
   0.0000000000000005    3.2984100000000001    0.0000000000000002
   0.0000000000000000    0.0000000000000000    5.0625600000000004
In
2
direct
   0.0000000000000000    0.0000000000000000    0.0000000000000000 In
   0.5000000000000000    0.5000000000000000    0.5000000000000000 In
