O4
1.0
   3.9238903819437687    0.0000000000000000    1.6881667948959269
  -0.0000000000000003    4.2768199999999998    0.0000000000000003
   0.0000000000000000    0.0000000000000000    4.5714800000000002
O
4
direct
   0.9378200000000000    0.0000000000000000    0.1466700000000000 O
   0.0621800000000000    0.0000000000000000    0.8533300000000000 O
   0.4378200000000000    0.5000000000000000    0.1466700000000000 O
   0.5621800000000000    0.5000000000000000    0.8533300000000000 O
