Se3                                     
   1.00000000000000     
     4.5246399999999998    0.0000000000000000    0.0000000000000003
    -2.2623199999999986    3.9184531829792228    0.0000000000000003
     0.0000000000000000    0.0000000000000000    5.0497800000000002
   Se
     3
Direct
  0.2190299999999965  0.0000000000000000  0.3333333333333357
  0.0000000000000000  0.2190299999999965  0.6666666666666643
  0.7809700000000035  0.7809700000000035  0.0000000000000000
 
  0.00000000E+00  0.00000000E+00  0.00000000E+00
  0.00000000E+00  0.00000000E+00  0.00000000E+00
  0.00000000E+00  0.00000000E+00  0.00000000E+00
