Bi6                                     
   1.00000000000000     
     4.5886600000000000    0.0000000000000000    0.0000000000000003
    -2.2943299999999986    3.9738961293295030    0.0000000000000003
     0.0000000000000000    0.0000000000000000   12.1822300000000006
   Bi
     6
Direct
  0.0000000000000000  0.0000000000000000  0.2337399999999974
  0.0000000000000000  0.0000000000000000  0.7662600000000026
  0.6666666666666643  0.3333333333333357  0.5670700000000011
  0.6666666666666643  0.3333333333333357  0.0995899999999992
  0.3333333333333357  0.6666666666666643  0.9004100000000008
  0.3333333333333357  0.6666666666666643  0.4329299999999989
 
  0.00000000E+00  0.00000000E+00  0.00000000E+00
  0.00000000E+00  0.00000000E+00  0.00000000E+00
  0.00000000E+00  0.00000000E+00  0.00000000E+00
  0.00000000E+00  0.00000000E+00  0.00000000E+00
  0.00000000E+00  0.00000000E+00  0.00000000E+00
  0.00000000E+00  0.00000000E+00  0.00000000E+00
