Bi6
1.0
   4.5886600000000000    0.0000000000000000    0.0000000000000003
  -2.2943299999999986    3.9738961293295030    0.0000000000000003
   0.0000000000000000    0.0000000000000000   12.1822300000000006
Bi
6
direct
   0.0000000000000000    0.0000000000000000    0.2337400000000000 Bi
   0.0000000000000000    0.0000000000000000    0.7662600000000001 Bi
   0.6666666666666666    0.3333333333333333    0.5670700000000000 Bi
   0.6666666666666666    0.3333333333333333    0.0995900000000000 Bi
   0.3333333333333333    0.6666666666666666    0.9004100000000000 Bi
   0.3333333333333333    0.6666666666666666    0.4329300000000000 Bi
