Ga8                                     
   1.00000000000000     
     4.5668899999999999    0.0000000000000000    0.0000000000000003
     0.0000000000000012    7.7533000000000003    0.0000000000000005
     0.0000000000000000    0.0000000000000000    4.5997800000000000
   Ga
     8
Direct
  0.0000000000000000  0.1564199999999971  0.0812000000000026
  0.0000000000000000  0.8435800000000029  0.9187999999999974
  0.0000000000000000  0.3435800000000029  0.5812000000000026
  0.0000000000000000  0.6564199999999971  0.4187999999999974
  0.5000000000000000  0.6564199999999971  0.0812000000000026
  0.5000000000000000  0.3435800000000029  0.9187999999999974
  0.5000000000000000  0.8435800000000029  0.5812000000000026
  0.5000000000000000  0.1564199999999971  0.4187999999999974
 
  0.00000000E+00  0.00000000E+00  0.00000000E+00
  0.00000000E+00  0.00000000E+00  0.00000000E+00
  0.00000000E+00  0.00000000E+00  0.00000000E+00
  0.00000000E+00  0.00000000E+00  0.00000000E+00
  0.00000000E+00  0.00000000E+00  0.00000000E+00
  0.00000000E+00  0.00000000E+00  0.00000000E+00
  0.00000000E+00  0.00000000E+00  0.00000000E+00
  0.00000000E+00  0.00000000E+00  0.00000000E+00
