Tl2                                     
   1.00000000000000     
     3.5925500000000001    0.0000000000000000    0.0000000000000002
     1.7962750000000010    3.1112395643657846    0.0000000000000002
     0.0000000000000000    0.0000000000000000    5.6419499999999996
   Tl
     2
Direct
  0.0000000000000000  0.0000000000000000  0.0000000000000000
  0.3333333333333357  0.3333333333333357  0.5000000000000000
 
  0.00000000E+00  0.00000000E+00  0.00000000E+00
  0.00000000E+00  0.00000000E+00  0.00000000E+00
