Tl2
1.0
   3.5925500000000001    0.0000000000000000    0.0000000000000002
   1.7962750000000010    3.1112395643657846    0.0000000000000002
   0.0000000000000000    0.0000000000000000    5.6419499999999996
Tl
2
direct
   0.0000000000000000    0.0000000000000000    0.0000000000000000 Tl
   0.3333333333333333    0.3333333333333333    0.5000000000000000 Tl
